

1

1

1

1

1

1

1

1

1

1

1

1

1

1

1

1

1

1

1

1

1

1

1

1

1

1

1

1

1

1

1

1

1

1

1

1

1

2

1

1

1

1

1

1

1

1

1

1

1

1

1

1

1

1

1

1

1

1

1

1

1

1

1

2

1

1

1

1

1

1

1

1

1

1

1

1

1

1

1

1

1

1

1

1

1

1

1

1

1

1

1

1

1

1

1

1

1

1

1

1

1

1

1

1

1

1

1

1

1

1

1

1

1

1

1

1

1

1

1

1

1

1

1

1

1

1

1

1

2

1

1

1

1

1

7

1

1

1

1

1

1

1

1

1

1

1

1

1

1

1

1

1

1

1

1

1

1

1

1

1

1

1

1

1

1

1

1

1

5

1

1

1

1

1

1

1

1

1

1

1

1

1

1

1

1

1

1

1

1

1

1

1

1

1

1

1

1

1

1

1

1

1

1

1

1

1

1

1

1

1

1

1

1

1

12

1

1

1

1

26

1

1

1

1

1

1

2

1

1

1

1

1

1

1

1

1

1

1

1

1

1

1

1

1

1

1

1

1

1

1

1

1

1

1

1

1

1

1

1

1

1

1

1

1

1

1

1

1

1

1

1

1

1

1

1

1

1

1

1

1

1

4

1

1

1

1

1

1

1

1

1

1

1

1

1

1

2

1

1

1

1

1

1

1

1

1

1

1

1

1

1

1

1

1

1

1

1

1

1

1

3

1

1

1

1

1

1

4

1

1

1

1

1

1

1

1

1

1

1

1

3

1

1

1

1

1

1

1

1

1

1

1

1

1

1

1

1

1

1

1

1

1

1

1

1

1

1

1

1

1

1

1

1

1

1

1

1

1

1

7

2

1

1

1

1

1

1

1

1

1

1

1

1

1

1

1

1

1

1

1

21

3

1

1

1

1

1

1

2

1

1

1

1

1

1

1

1

1

1

1

1

1

1

1

1

1

1

1

1

1

1

1

1

1

1

1

1

1

1

1

4

2

3

1

1

1

1

1

1

1

1

1

1

1

1

1

6

27

1

1

1

3

1

1

1

1

1

1

1

1

2

1

1

1

1

1

3

1

1

1

2

1

1

1

1

1

9

1

1

1

1

1

1

1

1

1

1

1

2

1

1

1

1

4

1

1

1

2

1

1

1

1

1

1

1

1

1

1

1

1

1

2

1

1

1

16

1

1

1

1

1

1

2

1

1

1

1

14

1

1

1

1

1

2

1

1

1

1

1

1

137

1

1

1

1

1

1

1

1

1

3

5

1

9

1

21

1

1

1

1

1

1

1

1

1

1

1

11

1

1

1

1

1

1

1

17

1

1

1

1

1

1

1

1

1

1

1

1

1

1

1

1

1

3

6

1

3

1

1

1

1

1

1

1

1

1

1

1

1

1

1

1

1

5

1

1

1

1

1

1

1

1

1

1

1

1

1

1

1

1

4

1

1

1

4

1

10

3

1

1

1

7

1

2

1

1

1

2

1

1

1

1

1

1

1

1

1

1

1

1

1

1

1

1

1

1

1

1

1

1

1

1

1

3

150

1

4

1

1

1

5

1

1

1

1

1

1

1

1

1

1

1

1

1

1

1

1

1

2

1

1

1

12

1

1

1

1

1

1

1

2

1

1

2

2

1

1

6

2

1

8

1

6

3

1

1

2

2

1

1

1

3

1

1

1

1

1

8

1

1

1

2

1

1

1

2

1

1

1

1

3

1

1

4

1

1

1

1

1

1

1

1

1

1

51

1

2

3

1

1

1

1

1

1

1

1

1

1

1

1

1

1

1

1

1

1

1

1

1

1

2

4

3

1

1

1

1

4

2

1

1

1

1

1

1

2

1

3

2

1

1

1

1

1

1

3

1

4

1

2

1

1

1

5

1

3

3

1

9

2

1

1

196

4

1

6

2

4

4

1

1

1

1

1

2

1

1

1

6

12

1

5

1

1

1

1

5

2

1

1

1

1

1

8

1

1

1

1

1

4

1

2

11

1

4

7

3

15

17

1

1

2

1

1

2

2

1

3

1

1

7

6

1

1

1

1

1

1

3

1

1

1

1

5

1

1

1

1

1

1

5

3

6

1

1

1

1

1

3

1

1

1

1

1

1

4

1

4

1

1

1

1

2

1

1

1

1

1

1

1

2

3

1

1

1

1

1

1

1

1

3

2

1

1

4

1

1

1

2

1

2

1

3

2

1

1

1

1

1

6

1

5

1

8

1

1

1

1

1

12

1

11

4

1

1

1

2

2

1

1

1

1

1

1

26

1

1

5

1

1

1

1

1

1

1

1

1

1

7

9

1

1

1

2

1

1

1

1

1

1

1

1

1

1

1

1

1

6

1

1

1

1

1

1

1

14

1

1

3

1

2

5

1

1

1

1

1

1

1

1

1

1

1

1

1

1

1

1

1

1

1

1

1

1

1

1

5

3

4

1

1

1

1

1

1

1

3

10

1

1

1

1

1

1

1

1

1

1

1

1

1

1

1

1

3

1

1

1

4

1

1

1

1

1

1

1

1

1

3

1

1

1

1

1

1

1

1

1

5

1

1

1

1

1

1

1

4

1

1

1

1

17

1

1

1

1

1

1

1

1

2

1

1

1

1

1

3

1

1

2

1

1

1

1

1

1

1

1

2

1

1

1

1

1

1

1

1

1

1

1

1

1

1

1

1

1

1

1

1

1

1

1

1

2

1

1

1

1

1

1

1

1

1

1

1

1

1

1

1

1

1

1

1

1

1

71

4

1

2

1

1

1

1

1

1

1

1

1

1

1

1

1

1

1

1

1

1

1

2

1

1

1

1

1

4

1

1

1

1

1

1

1

1

1

2

1

5

1

1

1

1

1

1

1

1

1

1

1

1

1

1

1

1

1

1

1

1

1

2

4

1

1

1

1

1

1

1

2

1

1

1

1

1

1

1

1

1

1

1

1

10

1

1

1

1

1

1

1

1

2

1

1

1

1

1

1

1

1

1

1

1

1

1

1

1

1

1

1

1

1

1

1

1

1

1

1

1

1

1

1

1

1

1

1

1

1

2

1

3

3

1

1

1

1

1

1

1

1

1

1

1

1

1

1

1

1

1

1

1

2

1

1

1

1

1

1

1

1

1

1

1

3

1

1

1

1

1

1

1

1

4

1

5

1

1

1

1

1

1

1

1

1

1

1

1

1

1

1

1

1

1

1

1

1

1

1

1

1

1

1

1

1

1

1

1

49

1

1

1

1

6

1

1

4

1

1

1

1

1

1

1

1

1

1

1

1

1

1

1

1

1

1

1

1

1

1

1

1

1

1

1

1

1

1

1

1

1

2

2

2

1

1

1

6

1

4

16

1

1

1

1

1

1

1

1

1

1

1

1

1

1

1

1

1

1

1

1

1

1

1

1

1

1

1

1

1

1

1

1

1

1

1

1

1

1

1

1

1

1

1

1

1

1

1

1

1

1

1

2

1

1

1

1

1

1

1

1

1

1

1

2

1

3

1

1

1

1

1

1

1

1

1

2

1

1

1

1

1

1

1

1

1

1

1

2

1

1

1

1

1

1

1

1

1

1

1

1

1

1

1

1

1

1

1

1

1

1

1

1

1

1

1

1

1

1

1

1

1

1

1

